c File: flat100_3_0.col
c
c SOURCE: Joseph Culberson (joe@cs.ualberta.ca)
c DESCRIPTION: Quasi-random coloring problem
c              generated with flatness = 0
c                             probability = 0.072
c                             known coloring = 3
c                             random seed = 1036
c              Creation Date:  Thu Jun  4 18:55:32 1998
c Maximum degree = 8 Minimum degree = 1
c p edge 100 239
c cnf created by edge2cnf
p cnf 300 1117
-1 -2 0
-1 -3 0
-2 -3 0
1 2 3 0
-4 -5 0
-4 -6 0
-5 -6 0
4 5 6 0
-7 -8 0
-7 -9 0
-8 -9 0
7 8 9 0
-10 -11 0
-10 -12 0
-11 -12 0
10 11 12 0
-13 -14 0
-13 -15 0
-14 -15 0
13 14 15 0
-16 -17 0
-16 -18 0
-17 -18 0
16 17 18 0
-19 -20 0
-19 -21 0
-20 -21 0
19 20 21 0
-22 -23 0
-22 -24 0
-23 -24 0
22 23 24 0
-25 -26 0
-25 -27 0
-26 -27 0
25 26 27 0
-28 -29 0
-28 -30 0
-29 -30 0
28 29 30 0
-31 -32 0
-31 -33 0
-32 -33 0
31 32 33 0
-34 -35 0
-34 -36 0
-35 -36 0
34 35 36 0
-37 -38 0
-37 -39 0
-38 -39 0
37 38 39 0
-40 -41 0
-40 -42 0
-41 -42 0
40 41 42 0
-43 -44 0
-43 -45 0
-44 -45 0
43 44 45 0
-46 -47 0
-46 -48 0
-47 -48 0
46 47 48 0
-49 -50 0
-49 -51 0
-50 -51 0
49 50 51 0
-52 -53 0
-52 -54 0
-53 -54 0
52 53 54 0
-55 -56 0
-55 -57 0
-56 -57 0
55 56 57 0
-58 -59 0
-58 -60 0
-59 -60 0
58 59 60 0
-61 -62 0
-61 -63 0
-62 -63 0
61 62 63 0
-64 -65 0
-64 -66 0
-65 -66 0
64 65 66 0
-67 -68 0
-67 -69 0
-68 -69 0
67 68 69 0
-70 -71 0
-70 -72 0
-71 -72 0
70 71 72 0
-73 -74 0
-73 -75 0
-74 -75 0
73 74 75 0
-76 -77 0
-76 -78 0
-77 -78 0
76 77 78 0
-79 -80 0
-79 -81 0
-80 -81 0
79 80 81 0
-82 -83 0
-82 -84 0
-83 -84 0
82 83 84 0
-85 -86 0
-85 -87 0
-86 -87 0
85 86 87 0
-88 -89 0
-88 -90 0
-89 -90 0
88 89 90 0
-91 -92 0
-91 -93 0
-92 -93 0
91 92 93 0
-94 -95 0
-94 -96 0
-95 -96 0
94 95 96 0
-97 -98 0
-97 -99 0
-98 -99 0
97 98 99 0
-100 -101 0
-100 -102 0
-101 -102 0
100 101 102 0
-103 -104 0
-103 -105 0
-104 -105 0
103 104 105 0
-106 -107 0
-106 -108 0
-107 -108 0
106 107 108 0
-109 -110 0
-109 -111 0
-110 -111 0
109 110 111 0
-112 -113 0
-112 -114 0
-113 -114 0
112 113 114 0
-115 -116 0
-115 -117 0
-116 -117 0
115 116 117 0
-118 -119 0
-118 -120 0
-119 -120 0
118 119 120 0
-121 -122 0
-121 -123 0
-122 -123 0
121 122 123 0
-124 -125 0
-124 -126 0
-125 -126 0
124 125 126 0
-127 -128 0
-127 -129 0
-128 -129 0
127 128 129 0
-130 -131 0
-130 -132 0
-131 -132 0
130 131 132 0
-133 -134 0
-133 -135 0
-134 -135 0
133 134 135 0
-136 -137 0
-136 -138 0
-137 -138 0
136 137 138 0
-139 -140 0
-139 -141 0
-140 -141 0
139 140 141 0
-142 -143 0
-142 -144 0
-143 -144 0
142 143 144 0
-145 -146 0
-145 -147 0
-146 -147 0
145 146 147 0
-148 -149 0
-148 -150 0
-149 -150 0
148 149 150 0
-151 -152 0
-151 -153 0
-152 -153 0
151 152 153 0
-154 -155 0
-154 -156 0
-155 -156 0
154 155 156 0
-157 -158 0
-157 -159 0
-158 -159 0
157 158 159 0
-160 -161 0
-160 -162 0
-161 -162 0
160 161 162 0
-163 -164 0
-163 -165 0
-164 -165 0
163 164 165 0
-166 -167 0
-166 -168 0
-167 -168 0
166 167 168 0
-169 -170 0
-169 -171 0
-170 -171 0
169 170 171 0
-172 -173 0
-172 -174 0
-173 -174 0
172 173 174 0
-175 -176 0
-175 -177 0
-176 -177 0
175 176 177 0
-178 -179 0
-178 -180 0
-179 -180 0
178 179 180 0
-181 -182 0
-181 -183 0
-182 -183 0
181 182 183 0
-184 -185 0
-184 -186 0
-185 -186 0
184 185 186 0
-187 -188 0
-187 -189 0
-188 -189 0
187 188 189 0
-190 -191 0
-190 -192 0
-191 -192 0
190 191 192 0
-193 -194 0
-193 -195 0
-194 -195 0
193 194 195 0
-196 -197 0
-196 -198 0
-197 -198 0
196 197 198 0
-199 -200 0
-199 -201 0
-200 -201 0
199 200 201 0
-202 -203 0
-202 -204 0
-203 -204 0
202 203 204 0
-205 -206 0
-205 -207 0
-206 -207 0
205 206 207 0
-208 -209 0
-208 -210 0
-209 -210 0
208 209 210 0
-211 -212 0
-211 -213 0
-212 -213 0
211 212 213 0
-214 -215 0
-214 -216 0
-215 -216 0
214 215 216 0
-217 -218 0
-217 -219 0
-218 -219 0
217 218 219 0
-220 -221 0
-220 -222 0
-221 -222 0
220 221 222 0
-223 -224 0
-223 -225 0
-224 -225 0
223 224 225 0
-226 -227 0
-226 -228 0
-227 -228 0
226 227 228 0
-229 -230 0
-229 -231 0
-230 -231 0
229 230 231 0
-232 -233 0
-232 -234 0
-233 -234 0
232 233 234 0
-235 -236 0
-235 -237 0
-236 -237 0
235 236 237 0
-238 -239 0
-238 -240 0
-239 -240 0
238 239 240 0
-241 -242 0
-241 -243 0
-242 -243 0
241 242 243 0
-244 -245 0
-244 -246 0
-245 -246 0
244 245 246 0
-247 -248 0
-247 -249 0
-248 -249 0
247 248 249 0
-250 -251 0
-250 -252 0
-251 -252 0
250 251 252 0
-253 -254 0
-253 -255 0
-254 -255 0
253 254 255 0
-256 -257 0
-256 -258 0
-257 -258 0
256 257 258 0
-259 -260 0
-259 -261 0
-260 -261 0
259 260 261 0
-262 -263 0
-262 -264 0
-263 -264 0
262 263 264 0
-265 -266 0
-265 -267 0
-266 -267 0
265 266 267 0
-268 -269 0
-268 -270 0
-269 -270 0
268 269 270 0
-271 -272 0
-271 -273 0
-272 -273 0
271 272 273 0
-274 -275 0
-274 -276 0
-275 -276 0
274 275 276 0
-277 -278 0
-277 -279 0
-278 -279 0
277 278 279 0
-280 -281 0
-280 -282 0
-281 -282 0
280 281 282 0
-283 -284 0
-283 -285 0
-284 -285 0
283 284 285 0
-286 -287 0
-286 -288 0
-287 -288 0
286 287 288 0
-289 -290 0
-289 -291 0
-290 -291 0
289 290 291 0
-292 -293 0
-292 -294 0
-293 -294 0
292 293 294 0
-295 -296 0
-295 -297 0
-296 -297 0
295 296 297 0
-298 -299 0
-298 -300 0
-299 -300 0
298 299 300 0
-271 -1 0
-272 -2 0
-273 -3 0
-286 -1 0
-287 -2 0
-288 -3 0
-139 -4 0
-140 -5 0
-141 -6 0
-235 -4 0
-236 -5 0
-237 -6 0
-166 -7 0
-167 -8 0
-168 -9 0
-190 -7 0
-191 -8 0
-192 -9 0
-223 -7 0
-224 -8 0
-225 -9 0
-121 -10 0
-122 -11 0
-123 -12 0
-154 -10 0
-155 -11 0
-156 -12 0
-196 -10 0
-197 -11 0
-198 -12 0
-214 -10 0
-215 -11 0
-216 -12 0
-226 -10 0
-227 -11 0
-228 -12 0
-256 -10 0
-257 -11 0
-258 -12 0
-118 -13 0
-119 -14 0
-120 -15 0
-121 -13 0
-122 -14 0
-123 -15 0
-151 -13 0
-152 -14 0
-153 -15 0
-169 -13 0
-170 -14 0
-171 -15 0
-205 -13 0
-206 -14 0
-207 -15 0
-214 -13 0
-215 -14 0
-216 -15 0
-244 -13 0
-245 -14 0
-246 -15 0
-148 -16 0
-149 -17 0
-150 -18 0
-157 -16 0
-158 -17 0
-159 -18 0
-160 -16 0
-161 -17 0
-162 -18 0
-163 -16 0
-164 -17 0
-165 -18 0
-223 -16 0
-224 -17 0
-225 -18 0
-229 -16 0
-230 -17 0
-231 -18 0
-259 -16 0
-260 -17 0
-261 -18 0
-112 -19 0
-113 -20 0
-114 -21 0
-205 -19 0
-206 -20 0
-207 -21 0
-241 -19 0
-242 -20 0
-243 -21 0
-130 -22 0
-131 -23 0
-132 -24 0
-133 -22 0
-134 -23 0
-135 -24 0
-241 -22 0
-242 -23 0
-243 -24 0
-112 -25 0
-113 -26 0
-114 -27 0
-127 -25 0
-128 -26 0
-129 -27 0
-136 -25 0
-137 -26 0
-138 -27 0
-184 -25 0
-185 -26 0
-186 -27 0
-253 -25 0
-254 -26 0
-255 -27 0
-256 -25 0
-257 -26 0
-258 -27 0
-265 -25 0
-266 -26 0
-267 -27 0
-151 -28 0
-152 -29 0
-153 -30 0
-244 -28 0
-245 -29 0
-246 -30 0
-277 -28 0
-278 -29 0
-279 -30 0
-133 -31 0
-134 -32 0
-135 -33 0
-154 -31 0
-155 -32 0
-156 -33 0
-166 -31 0
-167 -32 0
-168 -33 0
-175 -31 0
-176 -32 0
-177 -33 0
-208 -31 0
-209 -32 0
-210 -33 0
-211 -31 0
-212 -32 0
-213 -33 0
-226 -31 0
-227 -32 0
-228 -33 0
-229 -31 0
-230 -32 0
-231 -33 0
-109 -34 0
-110 -35 0
-111 -36 0
-142 -34 0
-143 -35 0
-144 -36 0
-151 -34 0
-152 -35 0
-153 -36 0
-199 -34 0
-200 -35 0
-201 -36 0
-250 -34 0
-251 -35 0
-252 -36 0
-286 -34 0
-287 -35 0
-288 -36 0
-292 -34 0
-293 -35 0
-294 -36 0
-181 -37 0
-182 -38 0
-183 -39 0
-211 -37 0
-212 -38 0
-213 -39 0
-217 -37 0
-218 -38 0
-219 -39 0
-247 -37 0
-248 -38 0
-249 -39 0
-253 -37 0
-254 -38 0
-255 -39 0
-112 -40 0
-113 -41 0
-114 -42 0
-160 -40 0
-161 -41 0
-162 -42 0
-187 -40 0
-188 -41 0
-189 -42 0
-199 -40 0
-200 -41 0
-201 -42 0
-226 -40 0
-227 -41 0
-228 -42 0
-253 -40 0
-254 -41 0
-255 -42 0
-298 -40 0
-299 -41 0
-300 -42 0
-130 -43 0
-131 -44 0
-132 -45 0
-178 -43 0
-179 -44 0
-180 -45 0
-118 -46 0
-119 -47 0
-120 -48 0
-121 -46 0
-122 -47 0
-123 -48 0
-214 -46 0
-215 -47 0
-216 -48 0
-115 -49 0
-116 -50 0
-117 -51 0
-136 -49 0
-137 -50 0
-138 -51 0
-172 -49 0
-173 -50 0
-174 -51 0
-181 -49 0
-182 -50 0
-183 -51 0
-226 -49 0
-227 -50 0
-228 -51 0
-274 -49 0
-275 -50 0
-276 -51 0
-298 -49 0
-299 -50 0
-300 -51 0
-145 -52 0
-146 -53 0
-147 -54 0
-169 -52 0
-170 -53 0
-171 -54 0
-145 -55 0
-146 -56 0
-147 -57 0
-220 -55 0
-221 -56 0
-222 -57 0
-235 -55 0
-236 -56 0
-237 -57 0
-175 -58 0
-176 -59 0
-177 -60 0
-187 -58 0
-188 -59 0
-189 -60 0
-190 -58 0
-191 -59 0
-192 -60 0
-202 -58 0
-203 -59 0
-204 -60 0
-214 -58 0
-215 -59 0
-216 -60 0
-202 -61 0
-203 -62 0
-204 -63 0
-292 -61 0
-293 -62 0
-294 -63 0
-109 -64 0
-110 -65 0
-111 -66 0
-118 -64 0
-119 -65 0
-120 -66 0
-124 -64 0
-125 -65 0
-126 -66 0
-157 -64 0
-158 -65 0
-159 -66 0
-205 -64 0
-206 -65 0
-207 -66 0
-220 -64 0
-221 -65 0
-222 -66 0
-244 -64 0
-245 -65 0
-246 -66 0
-295 -64 0
-296 -65 0
-297 -66 0
-169 -67 0
-170 -68 0
-171 -69 0
-178 -67 0
-179 -68 0
-180 -69 0
-190 -67 0
-191 -68 0
-192 -69 0
-241 -67 0
-242 -68 0
-243 -69 0
-259 -67 0
-260 -68 0
-261 -69 0
-271 -67 0
-272 -68 0
-273 -69 0
-127 -70 0
-128 -71 0
-129 -72 0
-136 -70 0
-137 -71 0
-138 -72 0
-169 -70 0
-170 -71 0
-171 -72 0
-175 -70 0
-176 -71 0
-177 -72 0
-211 -70 0
-212 -71 0
-213 -72 0
-232 -70 0
-233 -71 0
-234 -72 0
-112 -73 0
-113 -74 0
-114 -75 0
-133 -76 0
-134 -77 0
-135 -78 0
-154 -76 0
-155 -77 0
-156 -78 0
-178 -76 0
-179 -77 0
-180 -78 0
-193 -76 0
-194 -77 0
-195 -78 0
-277 -76 0
-278 -77 0
-279 -78 0
-280 -76 0
-281 -77 0
-282 -78 0
-286 -76 0
-287 -77 0
-288 -78 0
-106 -79 0
-107 -80 0
-108 -81 0
-109 -79 0
-110 -80 0
-111 -81 0
-115 -79 0
-116 -80 0
-117 -81 0
-121 -79 0
-122 -80 0
-123 -81 0
-256 -79 0
-257 -80 0
-258 -81 0
-268 -79 0
-269 -80 0
-270 -81 0
-271 -79 0
-272 -80 0
-273 -81 0
-295 -79 0
-296 -80 0
-297 -81 0
-199 -82 0
-200 -83 0
-201 -84 0
-235 -82 0
-236 -83 0
-237 -84 0
-247 -82 0
-248 -83 0
-249 -84 0
-256 -82 0
-257 -83 0
-258 -84 0
-283 -82 0
-284 -83 0
-285 -84 0
-103 -85 0
-104 -86 0
-105 -87 0
-115 -85 0
-116 -86 0
-117 -87 0
-133 -85 0
-134 -86 0
-135 -87 0
-241 -85 0
-242 -86 0
-243 -87 0
-277 -85 0
-278 -86 0
-279 -87 0
-289 -85 0
-290 -86 0
-291 -87 0
-295 -85 0
-296 -86 0
-297 -87 0
-106 -88 0
-107 -89 0
-108 -90 0
-202 -88 0
-203 -89 0
-204 -90 0
-286 -88 0
-287 -89 0
-288 -90 0
-106 -91 0
-107 -92 0
-108 -93 0
-184 -91 0
-185 -92 0
-186 -93 0
-202 -91 0
-203 -92 0
-204 -93 0
-295 -91 0
-296 -92 0
-297 -93 0
-184 -94 0
-185 -95 0
-186 -96 0
-190 -94 0
-191 -95 0
-192 -96 0
-223 -94 0
-224 -95 0
-225 -96 0
-265 -94 0
-266 -95 0
-267 -96 0
-283 -94 0
-284 -95 0
-285 -96 0
-130 -97 0
-131 -98 0
-132 -99 0
-154 -97 0
-155 -98 0
-156 -99 0
-217 -97 0
-218 -98 0
-219 -99 0
-244 -97 0
-245 -98 0
-246 -99 0
-283 -97 0
-284 -98 0
-285 -99 0
-208 -100 0
-209 -101 0
-210 -102 0
-277 -100 0
-278 -101 0
-279 -102 0
-235 -103 0
-236 -104 0
-237 -105 0
-256 -103 0
-257 -104 0
-258 -105 0
-232 -106 0
-233 -107 0
-234 -108 0
-262 -106 0
-263 -107 0
-264 -108 0
-268 -106 0
-269 -107 0
-270 -108 0
-229 -109 0
-230 -110 0
-231 -111 0
-241 -109 0
-242 -110 0
-243 -111 0
-253 -109 0
-254 -110 0
-255 -111 0
-268 -109 0
-269 -110 0
-270 -111 0
-205 -112 0
-206 -113 0
-207 -114 0
-241 -112 0
-242 -113 0
-243 -114 0
-247 -112 0
-248 -113 0
-249 -114 0
-292 -112 0
-293 -113 0
-294 -114 0
-205 -115 0
-206 -116 0
-207 -117 0
-241 -115 0
-242 -116 0
-243 -117 0
-253 -115 0
-254 -116 0
-255 -117 0
-271 -115 0
-272 -116 0
-273 -117 0
-250 -118 0
-251 -119 0
-252 -120 0
-247 -121 0
-248 -122 0
-249 -123 0
-205 -124 0
-206 -125 0
-207 -126 0
-226 -124 0
-227 -125 0
-228 -126 0
-286 -124 0
-287 -125 0
-288 -126 0
-238 -127 0
-239 -128 0
-240 -129 0
-241 -127 0
-242 -128 0
-243 -129 0
-283 -127 0
-284 -128 0
-285 -129 0
-292 -127 0
-293 -128 0
-294 -129 0
-217 -130 0
-218 -131 0
-219 -132 0
-238 -130 0
-239 -131 0
-240 -132 0
-250 -130 0
-251 -131 0
-252 -132 0
-274 -130 0
-275 -131 0
-276 -132 0
-280 -133 0
-281 -134 0
-282 -135 0
-256 -136 0
-257 -137 0
-258 -138 0
-292 -136 0
-293 -137 0
-294 -138 0
-250 -139 0
-251 -140 0
-252 -141 0
-277 -139 0
-278 -140 0
-279 -141 0
-217 -142 0
-218 -143 0
-219 -144 0
-280 -142 0
-281 -143 0
-282 -144 0
-283 -142 0
-284 -143 0
-285 -144 0
-295 -142 0
-296 -143 0
-297 -144 0
-217 -145 0
-218 -146 0
-219 -147 0
-226 -145 0
-227 -146 0
-228 -147 0
-298 -145 0
-299 -146 0
-300 -147 0
-298 -148 0
-299 -149 0
-300 -150 0
-220 -151 0
-221 -152 0
-222 -153 0
-226 -151 0
-227 -152 0
-228 -153 0
-232 -151 0
-233 -152 0
-234 -153 0
-262 -151 0
-263 -152 0
-264 -153 0
-259 -154 0
-260 -155 0
-261 -156 0
-262 -154 0
-263 -155 0
-264 -156 0
-220 -157 0
-221 -158 0
-222 -159 0
-223 -157 0
-224 -158 0
-225 -159 0
-259 -157 0
-260 -158 0
-261 -159 0
-277 -157 0
-278 -158 0
-279 -159 0
-220 -160 0
-221 -161 0
-222 -162 0
-262 -160 0
-263 -161 0
-264 -162 0
-283 -160 0
-284 -161 0
-285 -162 0
-247 -163 0
-248 -164 0
-249 -165 0
-253 -163 0
-254 -164 0
-255 -165 0
-271 -163 0
-272 -164 0
-273 -165 0
-235 -166 0
-236 -167 0
-237 -168 0
-238 -166 0
-239 -167 0
-240 -168 0
-256 -166 0
-257 -167 0
-258 -168 0
-292 -166 0
-293 -167 0
-294 -168 0
-208 -169 0
-209 -170 0
-210 -171 0
-250 -169 0
-251 -170 0
-252 -171 0
-220 -172 0
-221 -173 0
-222 -174 0
-226 -172 0
-227 -173 0
-228 -174 0
-268 -172 0
-269 -173 0
-270 -174 0
-274 -172 0
-275 -173 0
-276 -174 0
-202 -178 0
-203 -179 0
-204 -180 0
-283 -178 0
-284 -179 0
-285 -180 0
-214 -184 0
-215 -185 0
-216 -186 0
-235 -187 0
-236 -188 0
-237 -189 0
-247 -187 0
-248 -188 0
-249 -189 0
-253 -187 0
-254 -188 0
-255 -189 0
-235 -196 0
-236 -197 0
-237 -198 0
-217 -199 0
-218 -200 0
-219 -201 0
-238 -199 0
-239 -200 0
-240 -201 0
